NAME          
ROWS
 N  OBJ
 L  c1
 L  c2
COLUMNS
    MARKER    'MARKER'                 'INTORG'
    x[1]      c1        150
    x[1]      c2        786
    x[1]      OBJ       -40
    x[2]      c1        559
    x[2]      c2        364
    x[2]      OBJ       -566
    x[3]      c1        818
    x[3]      c2        90
    x[3]      OBJ       -836
    x[4]      c1        429
    x[4]      c2        239
    x[4]      OBJ       -269
    x[5]      c1        482
    x[5]      c2        553
    x[5]      OBJ       -990
    x[6]      c1        43
    x[6]      c2        177
    x[6]      OBJ       -648
    x[7]      c1        244
    x[7]      c2        4
    x[7]      OBJ       -799
    x[8]      c1        15
    x[8]      c2        41
    x[8]      OBJ       -462
    x[9]      c1        393
    x[9]      c2        458
    x[9]      OBJ       -680
    x[10]     c1        538
    x[10]     c2        896
    x[10]     OBJ       -943
RHS
    rhs       c1        1836
    rhs       c2        1804
RANGES
BOUNDS
 BV bounds    x[1]
 BV bounds    x[2]
 BV bounds    x[3]
 BV bounds    x[4]
 BV bounds    x[5]
 BV bounds    x[6]
 BV bounds    x[7]
 BV bounds    x[8]
 BV bounds    x[9]
 BV bounds    x[10]
ENDATA
